
;this file is automatically generated: Mon Nov 02 10:43:03 CST 2020

;declarations generated

(declare-fun oclExcludes ( Int Int) Bool)
(declare-fun Cardinality ( Int) Int)
(declare-fun type_c50cbfee_80e1_4a6b_8514_96ca2f6f5cea_Class14 ( Int) Bool)
(declare-fun type_c50cbfee_80e1_4a6b_8514_96ca2f6f5cea_Class15 ( Int) Bool)
(declare-fun type_c50cbfee_80e1_4a6b_8514_96ca2f6f5cea_Class16 ( Int) Bool)
(declare-fun type_c50cbfee_80e1_4a6b_8514_96ca2f6f5cea_Class17 ( Int) Bool)
(declare-fun type_c50cbfee_80e1_4a6b_8514_96ca2f6f5cea_Class10 ( Int) Bool)
(declare-fun type_c50cbfee_80e1_4a6b_8514_96ca2f6f5cea_Class11 ( Int) Bool)
(declare-fun type_c50cbfee_80e1_4a6b_8514_96ca2f6f5cea_Class12 ( Int) Bool)
(declare-fun type_c50cbfee_80e1_4a6b_8514_96ca2f6f5cea_Class13 ( Int) Bool)
(declare-fun oclSelect ( Int Bool) Int)
(declare-fun type_c50cbfee_80e1_4a6b_8514_96ca2f6f5cea_Class8 ( Int) Bool)
(declare-fun type_c50cbfee_80e1_4a6b_8514_96ca2f6f5cea_Class7 ( Int) Bool)
(declare-fun type_c50cbfee_80e1_4a6b_8514_96ca2f6f5cea_Class6 ( Int) Bool)
(declare-fun type_c50cbfee_80e1_4a6b_8514_96ca2f6f5cea_Class5 ( Int) Bool)
(declare-fun type_c50cbfee_80e1_4a6b_8514_96ca2f6f5cea_Class9 ( Int) Bool)
(declare-fun Enum0 ( Int) Int)
(declare-fun Enum1 ( Int) Int)
(declare-fun Enum2 ( Int) Int)
(declare-fun type_c50cbfee_80e1_4a6b_8514_96ca2f6f5cea_Class0 ( Int) Bool)
(declare-fun type_c50cbfee_80e1_4a6b_8514_96ca2f6f5cea_Class4 ( Int) Bool)
(declare-fun type_c50cbfee_80e1_4a6b_8514_96ca2f6f5cea_Class3 ( Int) Bool)
(declare-fun type_c50cbfee_80e1_4a6b_8514_96ca2f6f5cea_Class2 ( Int) Bool)
(declare-fun type_c50cbfee_80e1_4a6b_8514_96ca2f6f5cea_Class1 ( Int) Bool)
(declare-fun container_ ( Int) Int)
(declare-fun obj_37b10368_5e84_454a_8f6b_d9cc4d75548c ( Int) Int)
(declare-fun oclIncludes ( Int Int) Bool)
(declare-fun ObjAt ( Int Int) Int)

;formula(s) generated
(assert (forall ((p Int)) (=> ( type_c50cbfee_80e1_4a6b_8514_96ca2f6f5cea_Class13 p )  (and (>= ( Enum1 ( obj_37b10368_5e84_454a_8f6b_d9cc4d75548c p )  )  0) (<= ( Enum1 ( obj_37b10368_5e84_454a_8f6b_d9cc4d75548c p )  )  5)))))
(assert (! (exists ((c1 Int)) (and ( type_c50cbfee_80e1_4a6b_8514_96ca2f6f5cea_Class13 c1 )  (= ( Enum1 ( obj_37b10368_5e84_454a_8f6b_d9cc4d75548c c1 )  )  0))):named l0))
(assert (! (exists ((o Int)) ( type_c50cbfee_80e1_4a6b_8514_96ca2f6f5cea_Class0 ( obj_37b10368_5e84_454a_8f6b_d9cc4d75548c o )  ) ):named c0))
(assert (! (exists ((o Int)) ( type_c50cbfee_80e1_4a6b_8514_96ca2f6f5cea_Class1 ( obj_37b10368_5e84_454a_8f6b_d9cc4d75548c o )  ) ):named c1))
(assert (! (exists ((o Int)) (and (and ( type_c50cbfee_80e1_4a6b_8514_96ca2f6f5cea_Class10 ( obj_37b10368_5e84_454a_8f6b_d9cc4d75548c o )  )  ( type_c50cbfee_80e1_4a6b_8514_96ca2f6f5cea_Class14 ( obj_37b10368_5e84_454a_8f6b_d9cc4d75548c o )  ) ) ( type_c50cbfee_80e1_4a6b_8514_96ca2f6f5cea_Class16 ( obj_37b10368_5e84_454a_8f6b_d9cc4d75548c o )  ) )):named c2))
(assert (! (exists ((o Int)) ( type_c50cbfee_80e1_4a6b_8514_96ca2f6f5cea_Class11 ( obj_37b10368_5e84_454a_8f6b_d9cc4d75548c o )  ) ):named c3))
(assert (! (exists ((o Int)) ( type_c50cbfee_80e1_4a6b_8514_96ca2f6f5cea_Class12 ( obj_37b10368_5e84_454a_8f6b_d9cc4d75548c o )  ) ):named c4))
(assert (! (exists ((o Int)) ( type_c50cbfee_80e1_4a6b_8514_96ca2f6f5cea_Class13 ( obj_37b10368_5e84_454a_8f6b_d9cc4d75548c o )  ) ):named c5))
(assert (! (exists ((o Int)) ( type_c50cbfee_80e1_4a6b_8514_96ca2f6f5cea_Class14 ( obj_37b10368_5e84_454a_8f6b_d9cc4d75548c o )  ) ):named c6))
(assert (! (exists ((o Int)) ( type_c50cbfee_80e1_4a6b_8514_96ca2f6f5cea_Class15 ( obj_37b10368_5e84_454a_8f6b_d9cc4d75548c o )  ) ):named c7))
(assert (! (exists ((o Int)) (and ( type_c50cbfee_80e1_4a6b_8514_96ca2f6f5cea_Class16 ( obj_37b10368_5e84_454a_8f6b_d9cc4d75548c o )  )  ( type_c50cbfee_80e1_4a6b_8514_96ca2f6f5cea_Class14 ( obj_37b10368_5e84_454a_8f6b_d9cc4d75548c o )  ) )):named c8))
(assert (! (exists ((o Int)) ( type_c50cbfee_80e1_4a6b_8514_96ca2f6f5cea_Class17 ( obj_37b10368_5e84_454a_8f6b_d9cc4d75548c o )  ) ):named c9))
(assert (! (exists ((o Int)) ( type_c50cbfee_80e1_4a6b_8514_96ca2f6f5cea_Class2 ( obj_37b10368_5e84_454a_8f6b_d9cc4d75548c o )  ) ):named c10))
(assert (! (exists ((o Int)) ( type_c50cbfee_80e1_4a6b_8514_96ca2f6f5cea_Class3 ( obj_37b10368_5e84_454a_8f6b_d9cc4d75548c o )  ) ):named c11))
(assert (! (exists ((o Int)) ( type_c50cbfee_80e1_4a6b_8514_96ca2f6f5cea_Class4 ( obj_37b10368_5e84_454a_8f6b_d9cc4d75548c o )  ) ):named c12))
(assert (! (exists ((o Int)) ( type_c50cbfee_80e1_4a6b_8514_96ca2f6f5cea_Class5 ( obj_37b10368_5e84_454a_8f6b_d9cc4d75548c o )  ) ):named c13))
(assert (! (exists ((o Int)) ( type_c50cbfee_80e1_4a6b_8514_96ca2f6f5cea_Class6 ( obj_37b10368_5e84_454a_8f6b_d9cc4d75548c o )  ) ):named c14))
(assert (! (exists ((o Int)) ( type_c50cbfee_80e1_4a6b_8514_96ca2f6f5cea_Class7 ( obj_37b10368_5e84_454a_8f6b_d9cc4d75548c o )  ) ):named c15))
(assert (! (exists ((o Int)) ( type_c50cbfee_80e1_4a6b_8514_96ca2f6f5cea_Class8 ( obj_37b10368_5e84_454a_8f6b_d9cc4d75548c o )  ) ):named c16))
(assert (! (exists ((o Int)) ( type_c50cbfee_80e1_4a6b_8514_96ca2f6f5cea_Class9 ( obj_37b10368_5e84_454a_8f6b_d9cc4d75548c o )  ) ):named c17))

 ;end of formula 